c WMC file for PBN ISCAS/c499_distill_ISCAS/c499_miter written by probABC
p cnf 805 2169
83 9 10 0
-83 -9 0
-83 -10 0
84 -9 -10 0
-84 9 0
-84 10 0
85 83 84 0
-85 -83 0
-85 -84 0
86 11 12 0
-86 -11 0
-86 -12 0
87 -11 -12 0
-87 11 0
-87 12 0
88 86 87 0
-88 -86 0
-88 -87 0
89 -85 88 0
-89 85 0
-89 -88 0
90 85 -88 0
-90 -85 0
-90 88 0
91 89 90 0
-91 -89 0
-91 -90 0
92 -19 23 0
-92 19 0
-92 -23 0
93 19 -23 0
-93 -19 0
-93 23 0
94 92 93 0
-94 -92 0
-94 -93 0
95 -91 94 0
-95 91 0
-95 -94 0
96 91 -94 0
-96 -91 0
-96 94 0
97 95 96 0
-97 -95 0
-97 -96 0
98 -39 -41 0
-98 39 0
-98 41 0
99 1 2 0
-99 -1 0
-99 -2 0
100 -1 -2 0
-100 1 0
-100 2 0
101 99 100 0
-101 -99 0
-101 -100 0
102 -3 4 0
-102 3 0
-102 -4 0
103 3 -4 0
-103 -3 0
-103 4 0
104 102 103 0
-104 -102 0
-104 -103 0
105 -101 -104 0
-105 101 0
-105 104 0
106 101 104 0
-106 -101 0
-106 -104 0
107 105 106 0
-107 -105 0
-107 -106 0
108 -98 -107 0
-108 98 0
-108 107 0
109 98 107 0
-109 -98 0
-109 -107 0
110 108 109 0
-110 -108 0
-110 -109 0
111 27 31 0
-111 -27 0
-111 -31 0
112 -27 -31 0
-112 27 0
-112 31 0
113 111 112 0
-113 -111 0
-113 -112 0
114 -110 113 0
-114 110 0
-114 -113 0
115 110 -113 0
-115 -110 0
-115 113 0
116 114 115 0
-116 -114 0
-116 -115 0
117 -97 -116 0
-117 97 0
-117 116 0
118 97 116 0
-118 -97 0
-118 -116 0
119 117 118 0
-119 -117 0
-119 -118 0
120 23 -24 0
-120 -23 0
-120 24 0
121 -23 24 0
-121 23 0
-121 -24 0
122 120 121 0
-122 -120 0
-122 -121 0
123 21 22 0
-123 -21 0
-123 -22 0
124 -21 -22 0
-124 21 0
-124 22 0
125 123 124 0
-125 -123 0
-125 -124 0
126 -122 -125 0
-126 122 0
-126 125 0
127 122 125 0
-127 -122 0
-127 -125 0
128 126 127 0
-128 -126 0
-128 -127 0
129 -33 -41 0
-129 33 0
-129 41 0
130 -9 13 0
-130 9 0
-130 -13 0
131 9 -13 0
-131 -9 0
-131 13 0
132 130 131 0
-132 -130 0
-132 -131 0
133 1 5 0
-133 -1 0
-133 -5 0
134 -1 -5 0
-134 1 0
-134 5 0
135 133 134 0
-135 -133 0
-135 -134 0
136 -132 -135 0
-136 132 0
-136 135 0
137 132 135 0
-137 -132 0
-137 -135 0
138 136 137 0
-138 -136 0
-138 -137 0
139 19 -20 0
-139 -19 0
-139 20 0
140 -19 20 0
-140 19 0
-140 -20 0
141 139 140 0
-141 -139 0
-141 -140 0
142 17 18 0
-142 -17 0
-142 -18 0
143 -17 -18 0
-143 17 0
-143 18 0
144 142 143 0
-144 -142 0
-144 -143 0
145 -141 -144 0
-145 141 0
-145 144 0
146 141 144 0
-146 -141 0
-146 -144 0
147 145 146 0
-147 -145 0
-147 -146 0
148 -138 -147 0
-148 138 0
-148 147 0
149 138 147 0
-149 -138 0
-149 -147 0
150 148 149 0
-150 -148 0
-150 -149 0
151 -129 150 0
-151 129 0
-151 -150 0
152 129 -150 0
-152 -129 0
-152 150 0
153 151 152 0
-153 -151 0
-153 -152 0
154 -128 -153 0
-154 128 0
-154 153 0
155 128 153 0
-155 -128 0
-155 -153 0
156 154 155 0
-156 -154 0
-156 -155 0
157 2 6 0
-157 -2 0
-157 -6 0
158 -2 -6 0
-158 2 0
-158 6 0
159 157 158 0
-159 -157 0
-159 -158 0
160 -10 14 0
-160 10 0
-160 -14 0
161 10 -14 0
-161 -10 0
-161 14 0
162 160 161 0
-162 -160 0
-162 -161 0
163 -159 -162 0
-163 159 0
-163 162 0
164 159 162 0
-164 -159 0
-164 -162 0
165 163 164 0
-165 -163 0
-165 -164 0
166 -34 -41 0
-166 34 0
-166 41 0
167 29 30 0
-167 -29 0
-167 -30 0
168 -29 -30 0
-168 29 0
-168 30 0
169 167 168 0
-169 -167 0
-169 -168 0
170 -31 32 0
-170 31 0
-170 -32 0
171 31 -32 0
-171 -31 0
-171 32 0
172 170 171 0
-172 -170 0
-172 -171 0
173 -169 -172 0
-173 169 0
-173 172 0
174 169 172 0
-174 -169 0
-174 -172 0
175 173 174 0
-175 -173 0
-175 -174 0
176 25 26 0
-176 -25 0
-176 -26 0
177 -25 -26 0
-177 25 0
-177 26 0
178 176 177 0
-178 -176 0
-178 -177 0
179 -27 28 0
-179 27 0
-179 -28 0
180 27 -28 0
-180 -27 0
-180 28 0
181 179 180 0
-181 -179 0
-181 -180 0
182 -178 -181 0
-182 178 0
-182 181 0
183 178 181 0
-183 -178 0
-183 -181 0
184 182 183 0
-184 -182 0
-184 -183 0
185 -175 -184 0
-185 175 0
-185 184 0
186 175 184 0
-186 -175 0
-186 -184 0
187 185 186 0
-187 -185 0
-187 -186 0
188 -166 187 0
-188 166 0
-188 -187 0
189 166 -187 0
-189 -166 0
-189 187 0
190 188 189 0
-190 -188 0
-190 -189 0
191 -165 -190 0
-191 165 0
-191 190 0
192 165 190 0
-192 -165 0
-192 -190 0
193 191 192 0
-193 -191 0
-193 -192 0
194 156 -193 0
-194 -156 0
-194 193 0
195 -36 -41 0
-195 36 0
-195 41 0
196 4 8 0
-196 -4 0
-196 -8 0
197 -4 -8 0
-197 4 0
-197 8 0
198 196 197 0
-198 -196 0
-198 -197 0
199 -12 16 0
-199 12 0
-199 -16 0
200 12 -16 0
-200 -12 0
-200 16 0
201 199 200 0
-201 -199 0
-201 -200 0
202 -198 -201 0
-202 198 0
-202 201 0
203 198 201 0
-203 -198 0
-203 -201 0
204 202 203 0
-204 -202 0
-204 -203 0
205 -128 -204 0
-205 128 0
-205 204 0
206 128 204 0
-206 -128 0
-206 -204 0
207 205 206 0
-207 -205 0
-207 -206 0
208 -195 207 0
-208 195 0
-208 -207 0
209 195 -207 0
-209 -195 0
-209 207 0
210 208 209 0
-210 -208 0
-210 -209 0
211 -175 -210 0
-211 175 0
-211 210 0
212 175 210 0
-212 -175 0
-212 -210 0
213 211 212 0
-213 -211 0
-213 -212 0
214 -35 -41 0
-214 35 0
-214 41 0
215 3 7 0
-215 -3 0
-215 -7 0
216 -3 -7 0
-216 3 0
-216 7 0
217 215 216 0
-217 -215 0
-217 -216 0
218 -11 15 0
-218 11 0
-218 -15 0
219 11 -15 0
-219 -11 0
-219 15 0
220 218 219 0
-220 -218 0
-220 -219 0
221 -217 -220 0
-221 217 0
-221 220 0
222 217 220 0
-222 -217 0
-222 -220 0
223 221 222 0
-223 -221 0
-223 -222 0
224 -147 -223 0
-224 147 0
-224 223 0
225 147 223 0
-225 -147 0
-225 -223 0
226 224 225 0
-226 -224 0
-226 -225 0
227 -214 226 0
-227 214 0
-227 -226 0
228 214 -226 0
-228 -214 0
-228 226 0
229 227 228 0
-229 -227 0
-229 -228 0
230 -184 -229 0
-230 184 0
-230 229 0
231 184 229 0
-231 -184 0
-231 -229 0
232 230 231 0
-232 -230 0
-232 -231 0
233 -213 232 0
-233 213 0
-233 -232 0
234 13 14 0
-234 -13 0
-234 -14 0
235 -13 -14 0
-235 13 0
-235 14 0
236 234 235 0
-236 -234 0
-236 -235 0
237 -15 16 0
-237 15 0
-237 -16 0
238 15 -16 0
-238 -15 0
-238 16 0
239 237 238 0
-239 -237 0
-239 -238 0
240 -236 -239 0
-240 236 0
-240 239 0
241 236 239 0
-241 -236 0
-241 -239 0
242 240 241 0
-242 -240 0
-242 -241 0
243 -40 -41 0
-243 40 0
-243 41 0
244 20 24 0
-244 -20 0
-244 -24 0
245 -20 -24 0
-245 20 0
-245 24 0
246 244 245 0
-246 -244 0
-246 -245 0
247 -28 32 0
-247 28 0
-247 -32 0
248 28 -32 0
-248 -28 0
-248 32 0
249 247 248 0
-249 -247 0
-249 -248 0
250 -246 -249 0
-250 246 0
-250 249 0
251 246 249 0
-251 -246 0
-251 -249 0
252 250 251 0
-252 -250 0
-252 -251 0
253 5 -6 0
-253 -5 0
-253 6 0
254 -5 6 0
-254 5 0
-254 -6 0
255 253 254 0
-255 -253 0
-255 -254 0
256 7 -8 0
-256 -7 0
-256 8 0
257 -7 8 0
-257 7 0
-257 -8 0
258 256 257 0
-258 -256 0
-258 -257 0
259 -255 258 0
-259 255 0
-259 -258 0
260 255 -258 0
-260 -255 0
-260 258 0
261 259 260 0
-261 -259 0
-261 -260 0
262 -252 -261 0
-262 252 0
-262 261 0
263 252 261 0
-263 -252 0
-263 -261 0
264 262 263 0
-264 -262 0
-264 -263 0
265 -243 264 0
-265 243 0
-265 -264 0
266 243 -264 0
-266 -243 0
-266 264 0
267 265 266 0
-267 -265 0
-267 -266 0
268 -242 -267 0
-268 242 0
-268 267 0
269 242 267 0
-269 -242 0
-269 -267 0
270 268 269 0
-270 -268 0
-270 -269 0
271 119 270 0
-271 -119 0
-271 -270 0
272 -119 -270 0
-272 119 0
-272 270 0
273 271 272 0
-273 -271 0
-273 -272 0
274 25 29 0
-274 -25 0
-274 -29 0
275 -25 -29 0
-275 25 0
-275 29 0
276 274 275 0
-276 -274 0
-276 -275 0
277 17 -21 0
-277 -17 0
-277 21 0
278 -17 21 0
-278 17 0
-278 -21 0
279 277 278 0
-279 -277 0
-279 -278 0
280 261 -279 0
-280 -261 0
-280 279 0
281 -261 279 0
-281 261 0
-281 -279 0
282 280 281 0
-282 -280 0
-282 -281 0
283 -276 -282 0
-283 276 0
-283 282 0
284 276 282 0
-284 -276 0
-284 -282 0
285 283 284 0
-285 -283 0
-285 -284 0
286 -37 -41 0
-286 37 0
-286 41 0
287 107 -286 0
-287 -107 0
-287 286 0
288 -107 286 0
-288 107 0
-288 -286 0
289 287 288 0
-289 -287 0
-289 -288 0
290 -285 -289 0
-290 285 0
-290 289 0
291 285 289 0
-291 -285 0
-291 -289 0
292 290 291 0
-292 -290 0
-292 -291 0
293 18 -22 0
-293 -18 0
-293 22 0
294 -18 22 0
-294 18 0
-294 -22 0
295 293 294 0
-295 -293 0
-295 -294 0
296 -91 295 0
-296 91 0
-296 -295 0
297 91 -295 0
-297 -91 0
-297 295 0
298 296 297 0
-298 -296 0
-298 -297 0
299 -38 -41 0
-299 38 0
-299 41 0
300 -242 -299 0
-300 242 0
-300 299 0
301 242 299 0
-301 -242 0
-301 -299 0
302 300 301 0
-302 -300 0
-302 -301 0
303 26 30 0
-303 -26 0
-303 -30 0
304 -26 -30 0
-304 26 0
-304 30 0
305 303 304 0
-305 -303 0
-305 -304 0
306 -302 305 0
-306 302 0
-306 -305 0
307 302 -305 0
-307 -302 0
-307 305 0
308 306 307 0
-308 -306 0
-308 -307 0
309 -298 -308 0
-309 298 0
-309 308 0
310 298 308 0
-310 -298 0
-310 -308 0
311 309 310 0
-311 -309 0
-311 -310 0
312 -292 -311 0
-312 292 0
-312 311 0
313 273 -312 0
-313 -273 0
-313 312 0
314 -292 311 0
-314 292 0
-314 -311 0
315 292 -311 0
-315 -292 0
-315 311 0
316 314 315 0
-316 -314 0
-316 -315 0
317 -119 270 0
-317 119 0
-317 -270 0
318 316 -317 0
-318 -316 0
-318 317 0
319 313 318 0
-319 -313 0
-319 -318 0
320 -233 319 0
-320 233 0
-320 -319 0
321 -194 -320 0
-321 194 0
-321 320 0
322 119 -321 0
-322 -119 0
-322 321 0
323 -53 89 0
-323 53 0
-323 -89 0
324 53 91 0
-324 -53 0
-324 -91 0
325 323 324 0
-325 -323 0
-325 -324 0
326 -113 325 0
-326 113 0
-326 -325 0
327 113 -325 0
-327 -113 0
-327 325 0
328 326 327 0
-328 -326 0
-328 -327 0
329 55 93 0
-329 -55 0
-329 -93 0
330 -92 329 0
-330 92 0
-330 -329 0
331 92 -329 0
-331 -92 0
-331 329 0
332 330 331 0
-332 -330 0
-332 -331 0
333 -110 332 0
-333 110 0
-333 -332 0
334 110 -332 0
-334 -110 0
-334 332 0
335 333 334 0
-335 -333 0
-335 -334 0
336 -328 -335 0
-336 328 0
-336 335 0
337 328 335 0
-337 -328 0
-337 -335 0
338 336 337 0
-338 -336 0
-338 -337 0
339 47 -278 0
-339 -47 0
-339 278 0
340 47 277 0
-340 -47 0
-340 -277 0
341 278 340 0
-341 -278 0
-341 -340 0
342 339 341 0
-342 -339 0
-342 -341 0
343 276 342 0
-343 -276 0
-343 -342 0
344 48 343 0
-344 -48 0
-344 -343 0
345 49 253 0
-345 -49 0
-345 -253 0
346 254 -345 0
-346 -254 0
-346 345 0
347 -49 -254 0
-347 49 0
-347 254 0
348 346 347 0
-348 -346 0
-348 -347 0
349 50 257 0
-349 -50 0
-349 -257 0
350 -256 349 0
-350 256 0
-350 -349 0
351 256 -349 0
-351 -256 0
-351 349 0
352 350 351 0
-352 -350 0
-352 -351 0
353 -348 -352 0
-353 348 0
-353 352 0
354 348 352 0
-354 -348 0
-354 -352 0
355 353 354 0
-355 -353 0
-355 -354 0
356 286 355 0
-356 -286 0
-356 -355 0
357 -286 -355 0
-357 286 0
-357 355 0
358 356 357 0
-358 -356 0
-358 -357 0
359 -276 -342 0
-359 276 0
-359 342 0
360 107 -359 0
-360 -107 0
-360 359 0
361 -107 359 0
-361 107 0
-361 -359 0
362 360 361 0
-362 -360 0
-362 -361 0
363 -358 362 0
-363 358 0
-363 -362 0
364 358 -362 0
-364 -358 0
-364 362 0
365 363 364 0
-365 -363 0
-365 -364 0
366 -344 -365 0
-366 344 0
-366 365 0
367 344 365 0
-367 -344 0
-367 -365 0
368 366 367 0
-368 -366 0
-368 -367 0
369 302 -325 0
-369 -302 0
-369 325 0
370 -302 325 0
-370 302 0
-370 -325 0
371 369 370 0
-371 -369 0
-371 -370 0
372 51 -294 0
-372 -51 0
-372 294 0
373 51 293 0
-373 -51 0
-373 -293 0
374 294 373 0
-374 -294 0
-374 -373 0
375 372 374 0
-375 -372 0
-375 -374 0
376 -52 -305 0
-376 52 0
-376 305 0
377 375 376 0
-377 -375 0
-377 -376 0
378 52 305 0
-378 -52 0
-378 -305 0
379 377 -378 0
-379 -377 0
-379 378 0
380 -377 378 0
-380 377 0
-380 -378 0
381 379 380 0
-381 -379 0
-381 -380 0
382 371 381 0
-382 -371 0
-382 -381 0
383 -371 -381 0
-383 371 0
-383 381 0
384 54 -383 0
-384 -54 0
-384 383 0
385 -54 383 0
-385 54 0
-385 -383 0
386 382 384 0
-386 -382 0
-386 -384 0
387 385 -386 0
-387 -385 0
-387 386 0
388 368 387 0
-388 -368 0
-388 -387 0
389 338 -388 0
-389 -338 0
-389 388 0
390 -68 389 0
-390 68 0
-390 -389 0
391 68 -389 0
-391 -68 0
-391 389 0
392 390 391 0
-392 -390 0
-392 -391 0
393 56 243 0
-393 -56 0
-393 -243 0
394 -56 -243 0
-394 56 0
-394 243 0
395 393 394 0
-395 -393 0
-395 -394 0
396 -242 -395 0
-396 242 0
-396 395 0
397 242 395 0
-397 -242 0
-397 -395 0
398 396 397 0
-398 -396 0
-398 -397 0
399 -252 398 0
-399 252 0
-399 -398 0
400 252 -398 0
-400 -252 0
-400 398 0
401 399 400 0
-401 -399 0
-401 -400 0
402 -355 -401 0
-402 355 0
-402 401 0
403 355 401 0
-403 -355 0
-403 -401 0
404 402 403 0
-404 -402 0
-404 -403 0
405 392 -404 0
-405 -392 0
-405 404 0
406 -368 -387 0
-406 368 0
-406 387 0
407 338 -404 0
-407 -338 0
-407 404 0
408 -406 -407 0
-408 406 0
-408 407 0
409 69 408 0
-409 -69 0
-409 -408 0
410 -69 -408 0
-410 69 0
-410 408 0
411 409 410 0
-411 -409 0
-411 -410 0
412 -338 -404 0
-412 338 0
-412 404 0
413 338 404 0
-413 -338 0
-413 -404 0
414 412 413 0
-414 -412 0
-414 -413 0
415 368 -387 0
-415 -368 0
-415 387 0
416 414 -415 0
-416 -414 0
-416 415 0
417 411 416 0
-417 -411 0
-417 -416 0
418 405 -417 0
-418 -405 0
-418 417 0
419 -45 140 0
-419 45 0
-419 -140 0
420 45 -140 0
-420 -45 0
-420 140 0
421 419 420 0
-421 -419 0
-421 -420 0
422 44 139 0
-422 -44 0
-422 -139 0
423 -144 422 0
-423 144 0
-423 -422 0
424 144 -422 0
-424 -144 0
-424 422 0
425 423 424 0
-425 -423 0
-425 -424 0
426 -421 -425 0
-426 421 0
-426 425 0
427 421 425 0
-427 -421 0
-427 -425 0
428 426 427 0
-428 -426 0
-428 -427 0
429 46 121 0
-429 -46 0
-429 -121 0
430 -120 429 0
-430 120 0
-430 -429 0
431 120 -429 0
-431 -120 0
-431 429 0
432 430 431 0
-432 -430 0
-432 -431 0
433 -125 -432 0
-433 125 0
-433 432 0
434 125 432 0
-434 -125 0
-434 -432 0
435 433 434 0
-435 -433 0
-435 -434 0
436 129 435 0
-436 -129 0
-436 -435 0
437 -129 -435 0
-437 129 0
-437 435 0
438 436 437 0
-438 -436 0
-438 -437 0
439 42 -131 0
-439 -42 0
-439 131 0
440 42 130 0
-440 -42 0
-440 -130 0
441 131 440 0
-441 -131 0
-441 -440 0
442 439 441 0
-442 -439 0
-442 -441 0
443 -43 -135 0
-443 43 0
-443 135 0
444 442 443 0
-444 -442 0
-444 -443 0
445 43 135 0
-445 -43 0
-445 -135 0
446 444 -445 0
-446 -444 0
-446 445 0
447 -444 445 0
-447 444 0
-447 -445 0
448 446 447 0
-448 -446 0
-448 -447 0
449 -438 448 0
-449 438 0
-449 -448 0
450 438 -448 0
-450 -438 0
-450 448 0
451 449 450 0
-451 -449 0
-451 -450 0
452 -428 -451 0
-452 428 0
-452 451 0
453 428 451 0
-453 -428 0
-453 -451 0
454 452 453 0
-454 -452 0
-454 -453 0
455 -58 166 0
-455 58 0
-455 -166 0
456 58 -166 0
-456 -58 0
-456 166 0
457 455 456 0
-457 -455 0
-457 -456 0
458 -187 -457 0
-458 187 0
-458 457 0
459 187 457 0
-459 -187 0
-459 -457 0
460 -57 -165 0
-460 57 0
-460 165 0
461 57 165 0
-461 -57 0
-461 -165 0
462 460 461 0
-462 -460 0
-462 -461 0
463 -59 -462 0
-463 59 0
-463 462 0
464 458 459 0
-464 -458 0
-464 -459 0
465 463 -464 0
-465 -463 0
-465 464 0
466 59 462 0
-466 -59 0
-466 -462 0
467 465 -466 0
-467 -465 0
-467 466 0
468 -465 466 0
-468 465 0
-468 -466 0
469 467 468 0
-469 -467 0
-469 -468 0
470 454 -469 0
-470 -454 0
-470 469 0
471 -65 470 0
-471 65 0
-471 -470 0
472 65 -470 0
-472 -65 0
-472 470 0
473 471 472 0
-473 -471 0
-473 -472 0
474 -60 428 0
-474 60 0
-474 -428 0
475 60 -428 0
-475 -60 0
-475 428 0
476 474 475 0
-476 -474 0
-476 -475 0
477 61 214 0
-477 -61 0
-477 -214 0
478 -61 -214 0
-478 61 0
-478 214 0
479 477 478 0
-479 -477 0
-479 -478 0
480 -58 -184 0
-480 58 0
-480 184 0
481 58 184 0
-481 -58 0
-481 -184 0
482 480 481 0
-482 -480 0
-482 -481 0
483 -479 482 0
-483 479 0
-483 -482 0
484 479 -482 0
-484 -479 0
-484 482 0
485 483 484 0
-485 -483 0
-485 -484 0
486 -223 485 0
-486 223 0
-486 -485 0
487 223 -485 0
-487 -223 0
-487 485 0
488 486 487 0
-488 -486 0
-488 -487 0
489 -476 -488 0
-489 476 0
-489 488 0
490 476 488 0
-490 -476 0
-490 -488 0
491 489 490 0
-491 -489 0
-491 -490 0
492 473 491 0
-492 -473 0
-492 -491 0
493 -63 195 0
-493 63 0
-493 -195 0
494 63 -195 0
-494 -63 0
-494 195 0
495 493 494 0
-495 -493 0
-495 -494 0
496 62 -435 0
-496 -62 0
-496 435 0
497 -62 435 0
-497 62 0
-497 -435 0
498 -175 497 0
-498 175 0
-498 -497 0
499 204 498 0
-499 -204 0
-499 -498 0
500 -204 -498 0
-500 204 0
-500 498 0
501 499 500 0
-501 -499 0
-501 -500 0
502 -496 501 0
-502 496 0
-502 -501 0
503 496 -501 0
-503 -496 0
-503 501 0
504 502 503 0
-504 -502 0
-504 -503 0
505 -495 -504 0
-505 495 0
-505 504 0
506 495 504 0
-506 -495 0
-506 -504 0
507 505 506 0
-507 -505 0
-507 -506 0
508 -492 -507 0
-508 492 0
-508 507 0
509 418 -508 0
-509 -418 0
-509 508 0
510 -338 -509 0
-510 338 0
-510 509 0
511 80 -510 0
-511 -80 0
-511 510 0
512 31 -80 0
-512 -31 0
-512 80 0
513 510 -512 0
-513 -510 0
-513 512 0
514 511 513 0
-514 -511 0
-514 -513 0
515 -322 514 0
-515 322 0
-515 -514 0
516 322 -514 0
-516 -322 0
-516 514 0
517 515 516 0
-517 -515 0
-517 -516 0
518 454 469 0
-518 -454 0
-518 -469 0
519 -491 -518 0
-519 491 0
-519 518 0
520 64 507 0
-520 -64 0
-520 -507 0
521 -519 -520 0
-521 519 0
-521 520 0
522 -454 469 0
-522 454 0
-522 -469 0
523 491 -522 0
-523 -491 0
-523 522 0
524 492 523 0
-524 -492 0
-524 -523 0
525 507 524 0
-525 -507 0
-525 -524 0
526 -507 518 0
-526 507 0
-526 -518 0
527 519 520 0
-527 -519 0
-527 -520 0
528 526 -527 0
-528 -526 0
-528 527 0
529 521 528 0
-529 -521 0
-529 -528 0
530 525 -529 0
-530 -525 0
-530 529 0
531 -388 -412 0
-531 388 0
-531 412 0
532 530 -531 0
-532 -530 0
-532 531 0
533 -491 -532 0
-533 491 0
-533 532 0
534 -156 193 0
-534 156 0
-534 -193 0
535 194 534 0
-535 -194 0
-535 -534 0
536 213 232 0
-536 -213 0
-536 -232 0
537 535 -536 0
-537 -535 0
-537 536 0
538 213 -232 0
-538 -213 0
-538 232 0
539 233 538 0
-539 -233 0
-539 -538 0
540 156 193 0
-540 -156 0
-540 -193 0
541 539 -540 0
-541 -539 0
-541 540 0
542 537 541 0
-542 -537 0
-542 -541 0
543 -271 542 0
-543 271 0
-543 -542 0
544 -314 -543 0
-544 314 0
-544 543 0
545 -232 -544 0
-545 232 0
-545 544 0
546 533 545 0
-546 -533 0
-546 -545 0
547 -533 -545 0
-547 533 0
-547 545 0
548 546 547 0
-548 -546 0
-548 -547 0
549 -507 -532 0
-549 507 0
-549 532 0
550 -213 -544 0
-550 213 0
-550 544 0
551 549 550 0
-551 -549 0
-551 -550 0
552 -549 -550 0
-552 549 0
-552 550 0
553 551 552 0
-553 -551 0
-553 -552 0
554 392 404 0
-554 -392 0
-554 -404 0
555 530 -554 0
-555 -530 0
-555 554 0
556 -454 -555 0
-556 454 0
-556 555 0
557 -272 -314 0
-557 272 0
-557 314 0
558 542 -557 0
-558 -542 0
-558 557 0
559 -156 -558 0
-559 156 0
-559 558 0
560 556 559 0
-560 -556 0
-560 -559 0
561 -556 -559 0
-561 556 0
-561 559 0
562 560 561 0
-562 -560 0
-562 -561 0
563 319 -538 0
-563 -319 0
-563 538 0
564 -534 -563 0
-564 534 0
-564 563 0
565 -270 -564 0
-565 270 0
-565 564 0
566 -491 -522 0
-566 491 0
-566 522 0
567 507 -566 0
-567 -507 0
-567 566 0
568 418 -567 0
-568 -418 0
-568 567 0
569 404 -568 0
-569 -404 0
-569 568 0
570 -20 -72 0
-570 20 0
-570 72 0
571 -569 570 0
-571 569 0
-571 -570 0
572 -72 569 0
-572 72 0
-572 -569 0
573 571 572 0
-573 -571 0
-573 -572 0
574 -565 573 0
-574 565 0
-574 -573 0
575 565 -573 0
-575 -565 0
-575 573 0
576 574 575 0
-576 -574 0
-576 -575 0
577 292 -564 0
-577 -292 0
-577 564 0
578 -368 -568 0
-578 368 0
-578 568 0
579 -17 -70 0
-579 17 0
-579 70 0
580 -578 579 0
-580 578 0
-580 -579 0
581 -70 578 0
-581 70 0
-581 -578 0
582 580 581 0
-582 -580 0
-582 -581 0
583 577 582 0
-583 -577 0
-583 -582 0
584 -577 -582 0
-584 577 0
-584 582 0
585 311 -321 0
-585 -311 0
-585 321 0
586 387 -509 0
-586 -387 0
-586 509 0
587 79 -586 0
-587 -79 0
-587 586 0
588 30 -79 0
-588 -30 0
-588 79 0
589 586 -588 0
-589 -586 0
-589 588 0
590 587 589 0
-590 -587 0
-590 -589 0
591 -585 590 0
-591 585 0
-591 -590 0
592 585 -590 0
-592 -585 0
-592 590 0
593 591 592 0
-593 -591 0
-593 -592 0
594 -320 -534 0
-594 320 0
-594 534 0
595 292 -594 0
-595 -292 0
-595 594 0
596 -507 -523 0
-596 507 0
-596 523 0
597 418 -596 0
-597 -418 0
-597 596 0
598 -368 -597 0
-598 368 0
-598 597 0
599 73 -598 0
-599 -73 0
-599 598 0
600 21 -73 0
-600 -21 0
-600 73 0
601 598 -600 0
-601 -598 0
-601 600 0
602 599 601 0
-602 -599 0
-602 -601 0
603 -595 602 0
-603 595 0
-603 -602 0
604 595 -602 0
-604 -595 0
-604 602 0
605 603 604 0
-605 -603 0
-605 -604 0
606 404 -597 0
-606 -404 0
-606 597 0
607 -270 -594 0
-607 270 0
-607 594 0
608 606 607 0
-608 -606 0
-608 -607 0
609 -606 -607 0
-609 606 0
-609 607 0
610 608 609 0
-610 -608 0
-610 -609 0
611 387 -597 0
-611 -387 0
-611 597 0
612 311 -594 0
-612 -311 0
-612 594 0
613 611 -612 0
-613 -611 0
-613 612 0
614 -611 612 0
-614 611 0
-614 -612 0
615 473 -491 0
-615 -473 0
-615 491 0
616 75 615 0
-616 -75 0
-616 -615 0
617 -75 -615 0
-617 75 0
-617 615 0
618 507 616 0
-618 -507 0
-618 -616 0
619 617 -618 0
-619 -617 0
-619 618 0
620 418 -619 0
-620 -418 0
-620 619 0
621 -368 -620 0
-621 368 0
-621 620 0
622 -194 -563 0
-622 194 0
-622 563 0
623 292 -622 0
-623 -292 0
-623 622 0
624 -621 623 0
-624 621 0
-624 -623 0
625 621 -623 0
-625 -621 0
-625 623 0
626 -338 -568 0
-626 338 0
-626 568 0
627 119 -564 0
-627 -119 0
-627 564 0
628 626 627 0
-628 -626 0
-628 -627 0
629 -626 -627 0
-629 626 0
-629 627 0
630 628 629 0
-630 -628 0
-630 -629 0
631 -368 -509 0
-631 368 0
-631 509 0
632 292 -321 0
-632 -292 0
-632 321 0
633 -631 632 0
-633 631 0
-633 -632 0
634 631 -632 0
-634 -631 0
-634 632 0
635 404 -509 0
-635 -404 0
-635 509 0
636 -270 -321 0
-636 270 0
-636 321 0
637 -81 636 0
-637 81 0
-637 -636 0
638 81 -636 0
-638 -81 0
-638 636 0
639 637 638 0
-639 -637 0
-639 -638 0
640 -635 639 0
-640 635 0
-640 -639 0
641 635 -639 0
-641 -635 0
-641 639 0
642 640 641 0
-642 -640 0
-642 -641 0
643 -406 530 0
-643 406 0
-643 -530 0
644 -413 -643 0
-644 413 0
-644 643 0
645 -454 -644 0
-645 454 0
-645 644 0
646 -272 -315 0
-646 272 0
-646 315 0
647 542 -646 0
-647 -542 0
-647 646 0
648 -156 -647 0
-648 156 0
-648 647 0
649 645 648 0
-649 -645 0
-649 -648 0
650 -645 -648 0
-650 645 0
-650 648 0
651 649 650 0
-651 -649 0
-651 -650 0
652 -507 -555 0
-652 507 0
-652 555 0
653 -213 -558 0
-653 213 0
-653 558 0
654 652 653 0
-654 -652 0
-654 -653 0
655 -652 -653 0
-655 652 0
-655 653 0
656 654 655 0
-656 -654 0
-656 -655 0
657 -491 -555 0
-657 491 0
-657 555 0
658 -232 -558 0
-658 232 0
-658 558 0
659 657 658 0
-659 -657 0
-659 -658 0
660 -657 -658 0
-660 657 0
-660 658 0
661 659 660 0
-661 -659 0
-661 -660 0
662 -412 -643 0
-662 412 0
-662 643 0
663 -454 -662 0
-663 454 0
-663 662 0
664 -315 -543 0
-664 315 0
-664 543 0
665 -156 -664 0
-665 156 0
-665 664 0
666 663 665 0
-666 -663 0
-666 -665 0
667 -663 -665 0
-667 663 0
-667 665 0
668 666 667 0
-668 -666 0
-668 -667 0
669 -491 -644 0
-669 491 0
-669 644 0
670 -232 -647 0
-670 232 0
-670 647 0
671 -669 670 0
-671 669 0
-671 -670 0
672 669 -670 0
-672 -669 0
-672 670 0
673 -469 -662 0
-673 469 0
-673 662 0
674 -193 -664 0
-674 193 0
-674 664 0
675 673 674 0
-675 -673 0
-675 -674 0
676 -673 -674 0
-676 673 0
-676 674 0
677 675 676 0
-677 -675 0
-677 -676 0
678 -491 -662 0
-678 491 0
-678 662 0
679 -232 -664 0
-679 232 0
-679 664 0
680 678 679 0
-680 -678 0
-680 -679 0
681 -678 -679 0
-681 678 0
-681 679 0
682 680 681 0
-682 -680 0
-682 -681 0
683 -507 -662 0
-683 507 0
-683 662 0
684 -213 -664 0
-684 213 0
-684 664 0
685 683 684 0
-685 -683 0
-685 -684 0
686 -683 -684 0
-686 683 0
-686 684 0
687 685 686 0
-687 -685 0
-687 -686 0
688 -469 -532 0
-688 469 0
-688 532 0
689 -193 -544 0
-689 193 0
-689 544 0
690 688 -689 0
-690 -688 0
-690 689 0
691 -688 689 0
-691 688 0
-691 -689 0
692 311 -564 0
-692 -311 0
-692 564 0
693 387 -568 0
-693 -387 0
-693 568 0
694 -71 693 0
-694 71 0
-694 -693 0
695 71 -693 0
-695 -71 0
-695 693 0
696 694 695 0
-696 -694 0
-696 -695 0
697 -692 -696 0
-697 692 0
-697 696 0
698 692 696 0
-698 -692 0
-698 -696 0
699 -469 -555 0
-699 469 0
-699 555 0
700 -193 -558 0
-700 193 0
-700 558 0
701 699 -700 0
-701 -699 0
-701 700 0
702 -699 700 0
-702 699 0
-702 -700 0
703 119 -594 0
-703 -119 0
-703 594 0
704 -338 -597 0
-704 338 0
-704 597 0
705 -23 -74 0
-705 23 0
-705 74 0
706 -704 705 0
-706 704 0
-706 -705 0
707 -74 704 0
-707 74 0
-707 -704 0
708 706 707 0
-708 -706 0
-708 -707 0
709 703 -708 0
-709 -703 0
-709 708 0
710 -703 708 0
-710 703 0
-710 -708 0
711 709 710 0
-711 -709 0
-711 -710 0
712 -507 -644 0
-712 507 0
-712 644 0
713 -213 -647 0
-713 213 0
-713 647 0
714 712 713 0
-714 -712 0
-714 -713 0
715 -712 -713 0
-715 712 0
-715 713 0
716 714 715 0
-716 -714 0
-716 -715 0
717 -469 -644 0
-717 469 0
-717 644 0
718 -193 -647 0
-718 193 0
-718 647 0
719 717 718 0
-719 -717 0
-719 -718 0
720 -717 -718 0
-720 717 0
-720 718 0
721 719 720 0
-721 -719 0
-721 -720 0
722 311 -622 0
-722 -311 0
-722 622 0
723 387 -620 0
-723 -387 0
-723 620 0
724 76 -723 0
-724 -76 0
-724 723 0
725 26 -76 0
-725 -26 0
-725 76 0
726 723 -725 0
-726 -723 0
-726 725 0
727 724 726 0
-727 -724 0
-727 -726 0
728 722 -727 0
-728 -722 0
-728 727 0
729 -722 727 0
-729 722 0
-729 -727 0
730 728 729 0
-730 -728 0
-730 -729 0
731 9 66 0
-731 -9 0
-731 -66 0
732 -9 -66 0
-732 9 0
-732 66 0
733 731 732 0
-733 -731 0
-733 -732 0
734 -454 -532 0
-734 454 0
-734 532 0
735 -156 -544 0
-735 156 0
-735 544 0
736 9 -735 0
-736 -9 0
-736 735 0
737 -9 735 0
-737 9 0
-737 -735 0
738 736 737 0
-738 -736 0
-738 -737 0
739 -67 738 0
-739 67 0
-739 -738 0
740 67 -738 0
-740 -67 0
-740 738 0
741 739 740 0
-741 -739 0
-741 -740 0
742 -734 -741 0
-742 734 0
-742 741 0
743 734 741 0
-743 -734 0
-743 -741 0
744 742 743 0
-744 -742 0
-744 -743 0
745 -733 744 0
-745 733 0
-745 -744 0
746 733 -744 0
-746 -733 0
-746 744 0
747 119 -622 0
-747 -119 0
-747 622 0
748 -338 -620 0
-748 338 0
-748 620 0
749 -27 -77 0
-749 27 0
-749 77 0
750 -748 749 0
-750 748 0
-750 -749 0
751 -77 748 0
-751 77 0
-751 -748 0
752 750 751 0
-752 -750 0
-752 -751 0
753 -747 752 0
-753 747 0
-753 -752 0
754 747 -752 0
-754 -747 0
-754 752 0
755 753 754 0
-755 -753 0
-755 -754 0
756 -270 -622 0
-756 270 0
-756 622 0
757 404 -620 0
-757 -404 0
-757 620 0
758 78 -757 0
-758 -78 0
-758 757 0
759 28 -78 0
-759 -28 0
-759 78 0
760 757 -759 0
-760 -757 0
-760 759 0
761 758 760 0
-761 -758 0
-761 -760 0
762 -756 761 0
-762 756 0
-762 -761 0
763 756 -761 0
-763 -756 0
-763 761 0
764 762 763 0
-764 -762 0
-764 -763 0
765 613 614 0
-765 -613 0
-765 -614 0
766 633 634 0
-766 -633 0
-766 -634 0
767 -765 -766 0
-767 765 0
-767 766 0
768 610 624 0
-768 -610 0
-768 -624 0
769 625 630 0
-769 -625 0
-769 -630 0
770 642 690 0
-770 -642 0
-770 -690 0
771 691 701 0
-771 -691 0
-771 -701 0
772 702 -771 0
-772 -702 0
-772 771 0
773 -769 -770 0
-773 769 0
-773 770 0
774 -767 -768 0
-774 767 0
-774 768 0
775 548 553 0
-775 -548 0
-775 -553 0
776 562 583 0
-776 -562 0
-776 -583 0
777 584 656 0
-777 -584 0
-777 -656 0
778 661 671 0
-778 -661 0
-778 -671 0
779 672 697 0
-779 -672 0
-779 -697 0
780 698 -779 0
-780 -698 0
-780 779 0
781 -777 -778 0
-781 777 0
-781 778 0
782 -775 -776 0
-782 775 0
-782 776 0
783 -773 -774 0
-783 773 0
-783 774 0
784 517 -772 0
-784 -517 0
-784 772 0
785 576 593 0
-785 -576 0
-785 -593 0
786 605 651 0
-786 -605 0
-786 -651 0
787 668 677 0
-787 -668 0
-787 -677 0
788 682 687 0
-788 -682 0
-788 -687 0
789 711 716 0
-789 -711 0
-789 -716 0
790 721 745 0
-790 -721 0
-790 -745 0
791 746 -790 0
-791 -746 0
-791 790 0
792 -788 -789 0
-792 788 0
-792 789 0
793 -786 -787 0
-793 786 0
-793 787 0
794 -784 -785 0
-794 784 0
-794 785 0
795 -782 -783 0
-795 782 0
-795 783 0
796 -780 -781 0
-796 780 0
-796 781 0
797 730 755 0
-797 -730 0
-797 -755 0
798 764 -797 0
-798 -764 0
-798 797 0
799 -795 -796 0
-799 795 0
-799 796 0
800 -793 -794 0
-800 793 0
-800 794 0
801 -791 -792 0
-801 791 0
-801 792 0
802 -800 -801 0
-802 800 0
-802 801 0
803 -798 -799 0
-803 798 0
-803 799 0
804 -802 -803 0
-804 802 0
-804 803 0
82 804 0
-82 -804 0
82 0
w 1 0.500000
w 2 0.500000
w 3 0.500000
w 4 0.500000
w 5 0.500000
w 6 0.500000
w 7 0.500000
w 8 0.500000
w 9 0.500000
w 10 0.500000
w 11 0.500000
w 12 0.500000
w 13 0.500000
w 14 0.500000
w 15 0.500000
w 16 0.500000
w 17 0.500000
w 18 0.500000
w 19 0.500000
w 20 0.500000
w 21 0.500000
w 22 0.500000
w 23 0.500000
w 24 0.500000
w 25 0.500000
w 26 0.500000
w 27 0.500000
w 28 0.500000
w 29 0.500000
w 30 0.500000
w 31 0.500000
w 32 0.500000
w 33 0.500000
w 34 0.500000
w 35 0.500000
w 36 0.500000
w 37 0.500000
w 38 0.500000
w 39 0.500000
w 40 0.500000
w 41 0.500000
w 42 0.125000
w 43 0.125000
w 44 0.125000
w 45 0.125000
w 46 0.125000
w 47 0.125000
w 48 0.125000
w 49 0.125000
w 50 0.125000
w 51 0.125000
w 52 0.125000
w 53 0.125000
w 54 0.125000
w 55 0.125000
w 56 0.125000
w 57 0.125000
w 58 0.125000
w 59 0.125000
w 60 0.125000
w 61 0.125000
w 62 0.125000
w 63 0.125000
w 64 0.125000
w 65 0.125000
w 66 0.125000
w 67 0.125000
w 68 0.125000
w 69 0.125000
w 70 0.125000
w 71 0.125000
w 72 0.125000
w 73 0.125000
w 74 0.125000
w 75 0.125000
w 76 0.125000
w 77 0.125000
w 78 0.125000
w 79 0.125000
w 80 0.125000
w 81 0.125000
w 83 -1
w 84 -1
w 85 -1
w 86 -1
w 87 -1
w 88 -1
w 89 -1
w 90 -1
w 91 -1
w 92 -1
w 93 -1
w 94 -1
w 95 -1
w 96 -1
w 97 -1
w 98 -1
w 99 -1
w 100 -1
w 101 -1
w 102 -1
w 103 -1
w 104 -1
w 105 -1
w 106 -1
w 107 -1
w 108 -1
w 109 -1
w 110 -1
w 111 -1
w 112 -1
w 113 -1
w 114 -1
w 115 -1
w 116 -1
w 117 -1
w 118 -1
w 119 -1
w 120 -1
w 121 -1
w 122 -1
w 123 -1
w 124 -1
w 125 -1
w 126 -1
w 127 -1
w 128 -1
w 129 -1
w 130 -1
w 131 -1
w 132 -1
w 133 -1
w 134 -1
w 135 -1
w 136 -1
w 137 -1
w 138 -1
w 139 -1
w 140 -1
w 141 -1
w 142 -1
w 143 -1
w 144 -1
w 145 -1
w 146 -1
w 147 -1
w 148 -1
w 149 -1
w 150 -1
w 151 -1
w 152 -1
w 153 -1
w 154 -1
w 155 -1
w 156 -1
w 157 -1
w 158 -1
w 159 -1
w 160 -1
w 161 -1
w 162 -1
w 163 -1
w 164 -1
w 165 -1
w 166 -1
w 167 -1
w 168 -1
w 169 -1
w 170 -1
w 171 -1
w 172 -1
w 173 -1
w 174 -1
w 175 -1
w 176 -1
w 177 -1
w 178 -1
w 179 -1
w 180 -1
w 181 -1
w 182 -1
w 183 -1
w 184 -1
w 185 -1
w 186 -1
w 187 -1
w 188 -1
w 189 -1
w 190 -1
w 191 -1
w 192 -1
w 193 -1
w 194 -1
w 195 -1
w 196 -1
w 197 -1
w 198 -1
w 199 -1
w 200 -1
w 201 -1
w 202 -1
w 203 -1
w 204 -1
w 205 -1
w 206 -1
w 207 -1
w 208 -1
w 209 -1
w 210 -1
w 211 -1
w 212 -1
w 213 -1
w 214 -1
w 215 -1
w 216 -1
w 217 -1
w 218 -1
w 219 -1
w 220 -1
w 221 -1
w 222 -1
w 223 -1
w 224 -1
w 225 -1
w 226 -1
w 227 -1
w 228 -1
w 229 -1
w 230 -1
w 231 -1
w 232 -1
w 233 -1
w 234 -1
w 235 -1
w 236 -1
w 237 -1
w 238 -1
w 239 -1
w 240 -1
w 241 -1
w 242 -1
w 243 -1
w 244 -1
w 245 -1
w 246 -1
w 247 -1
w 248 -1
w 249 -1
w 250 -1
w 251 -1
w 252 -1
w 253 -1
w 254 -1
w 255 -1
w 256 -1
w 257 -1
w 258 -1
w 259 -1
w 260 -1
w 261 -1
w 262 -1
w 263 -1
w 264 -1
w 265 -1
w 266 -1
w 267 -1
w 268 -1
w 269 -1
w 270 -1
w 271 -1
w 272 -1
w 273 -1
w 274 -1
w 275 -1
w 276 -1
w 277 -1
w 278 -1
w 279 -1
w 280 -1
w 281 -1
w 282 -1
w 283 -1
w 284 -1
w 285 -1
w 286 -1
w 287 -1
w 288 -1
w 289 -1
w 290 -1
w 291 -1
w 292 -1
w 293 -1
w 294 -1
w 295 -1
w 296 -1
w 297 -1
w 298 -1
w 299 -1
w 300 -1
w 301 -1
w 302 -1
w 303 -1
w 304 -1
w 305 -1
w 306 -1
w 307 -1
w 308 -1
w 309 -1
w 310 -1
w 311 -1
w 312 -1
w 313 -1
w 314 -1
w 315 -1
w 316 -1
w 317 -1
w 318 -1
w 319 -1
w 320 -1
w 321 -1
w 322 -1
w 323 -1
w 324 -1
w 325 -1
w 326 -1
w 327 -1
w 328 -1
w 329 -1
w 330 -1
w 331 -1
w 332 -1
w 333 -1
w 334 -1
w 335 -1
w 336 -1
w 337 -1
w 338 -1
w 339 -1
w 340 -1
w 341 -1
w 342 -1
w 343 -1
w 344 -1
w 345 -1
w 346 -1
w 347 -1
w 348 -1
w 349 -1
w 350 -1
w 351 -1
w 352 -1
w 353 -1
w 354 -1
w 355 -1
w 356 -1
w 357 -1
w 358 -1
w 359 -1
w 360 -1
w 361 -1
w 362 -1
w 363 -1
w 364 -1
w 365 -1
w 366 -1
w 367 -1
w 368 -1
w 369 -1
w 370 -1
w 371 -1
w 372 -1
w 373 -1
w 374 -1
w 375 -1
w 376 -1
w 377 -1
w 378 -1
w 379 -1
w 380 -1
w 381 -1
w 382 -1
w 383 -1
w 384 -1
w 385 -1
w 386 -1
w 387 -1
w 388 -1
w 389 -1
w 390 -1
w 391 -1
w 392 -1
w 393 -1
w 394 -1
w 395 -1
w 396 -1
w 397 -1
w 398 -1
w 399 -1
w 400 -1
w 401 -1
w 402 -1
w 403 -1
w 404 -1
w 405 -1
w 406 -1
w 407 -1
w 408 -1
w 409 -1
w 410 -1
w 411 -1
w 412 -1
w 413 -1
w 414 -1
w 415 -1
w 416 -1
w 417 -1
w 418 -1
w 419 -1
w 420 -1
w 421 -1
w 422 -1
w 423 -1
w 424 -1
w 425 -1
w 426 -1
w 427 -1
w 428 -1
w 429 -1
w 430 -1
w 431 -1
w 432 -1
w 433 -1
w 434 -1
w 435 -1
w 436 -1
w 437 -1
w 438 -1
w 439 -1
w 440 -1
w 441 -1
w 442 -1
w 443 -1
w 444 -1
w 445 -1
w 446 -1
w 447 -1
w 448 -1
w 449 -1
w 450 -1
w 451 -1
w 452 -1
w 453 -1
w 454 -1
w 455 -1
w 456 -1
w 457 -1
w 458 -1
w 459 -1
w 460 -1
w 461 -1
w 462 -1
w 463 -1
w 464 -1
w 465 -1
w 466 -1
w 467 -1
w 468 -1
w 469 -1
w 470 -1
w 471 -1
w 472 -1
w 473 -1
w 474 -1
w 475 -1
w 476 -1
w 477 -1
w 478 -1
w 479 -1
w 480 -1
w 481 -1
w 482 -1
w 483 -1
w 484 -1
w 485 -1
w 486 -1
w 487 -1
w 488 -1
w 489 -1
w 490 -1
w 491 -1
w 492 -1
w 493 -1
w 494 -1
w 495 -1
w 496 -1
w 497 -1
w 498 -1
w 499 -1
w 500 -1
w 501 -1
w 502 -1
w 503 -1
w 504 -1
w 505 -1
w 506 -1
w 507 -1
w 508 -1
w 509 -1
w 510 -1
w 511 -1
w 512 -1
w 513 -1
w 514 -1
w 515 -1
w 516 -1
w 517 -1
w 518 -1
w 519 -1
w 520 -1
w 521 -1
w 522 -1
w 523 -1
w 524 -1
w 525 -1
w 526 -1
w 527 -1
w 528 -1
w 529 -1
w 530 -1
w 531 -1
w 532 -1
w 533 -1
w 534 -1
w 535 -1
w 536 -1
w 537 -1
w 538 -1
w 539 -1
w 540 -1
w 541 -1
w 542 -1
w 543 -1
w 544 -1
w 545 -1
w 546 -1
w 547 -1
w 548 -1
w 549 -1
w 550 -1
w 551 -1
w 552 -1
w 553 -1
w 554 -1
w 555 -1
w 556 -1
w 557 -1
w 558 -1
w 559 -1
w 560 -1
w 561 -1
w 562 -1
w 563 -1
w 564 -1
w 565 -1
w 566 -1
w 567 -1
w 568 -1
w 569 -1
w 570 -1
w 571 -1
w 572 -1
w 573 -1
w 574 -1
w 575 -1
w 576 -1
w 577 -1
w 578 -1
w 579 -1
w 580 -1
w 581 -1
w 582 -1
w 583 -1
w 584 -1
w 585 -1
w 586 -1
w 587 -1
w 588 -1
w 589 -1
w 590 -1
w 591 -1
w 592 -1
w 593 -1
w 594 -1
w 595 -1
w 596 -1
w 597 -1
w 598 -1
w 599 -1
w 600 -1
w 601 -1
w 602 -1
w 603 -1
w 604 -1
w 605 -1
w 606 -1
w 607 -1
w 608 -1
w 609 -1
w 610 -1
w 611 -1
w 612 -1
w 613 -1
w 614 -1
w 615 -1
w 616 -1
w 617 -1
w 618 -1
w 619 -1
w 620 -1
w 621 -1
w 622 -1
w 623 -1
w 624 -1
w 625 -1
w 626 -1
w 627 -1
w 628 -1
w 629 -1
w 630 -1
w 631 -1
w 632 -1
w 633 -1
w 634 -1
w 635 -1
w 636 -1
w 637 -1
w 638 -1
w 639 -1
w 640 -1
w 641 -1
w 642 -1
w 643 -1
w 644 -1
w 645 -1
w 646 -1
w 647 -1
w 648 -1
w 649 -1
w 650 -1
w 651 -1
w 652 -1
w 653 -1
w 654 -1
w 655 -1
w 656 -1
w 657 -1
w 658 -1
w 659 -1
w 660 -1
w 661 -1
w 662 -1
w 663 -1
w 664 -1
w 665 -1
w 666 -1
w 667 -1
w 668 -1
w 669 -1
w 670 -1
w 671 -1
w 672 -1
w 673 -1
w 674 -1
w 675 -1
w 676 -1
w 677 -1
w 678 -1
w 679 -1
w 680 -1
w 681 -1
w 682 -1
w 683 -1
w 684 -1
w 685 -1
w 686 -1
w 687 -1
w 688 -1
w 689 -1
w 690 -1
w 691 -1
w 692 -1
w 693 -1
w 694 -1
w 695 -1
w 696 -1
w 697 -1
w 698 -1
w 699 -1
w 700 -1
w 701 -1
w 702 -1
w 703 -1
w 704 -1
w 705 -1
w 706 -1
w 707 -1
w 708 -1
w 709 -1
w 710 -1
w 711 -1
w 712 -1
w 713 -1
w 714 -1
w 715 -1
w 716 -1
w 717 -1
w 718 -1
w 719 -1
w 720 -1
w 721 -1
w 722 -1
w 723 -1
w 724 -1
w 725 -1
w 726 -1
w 727 -1
w 728 -1
w 729 -1
w 730 -1
w 731 -1
w 732 -1
w 733 -1
w 734 -1
w 735 -1
w 736 -1
w 737 -1
w 738 -1
w 739 -1
w 740 -1
w 741 -1
w 742 -1
w 743 -1
w 744 -1
w 745 -1
w 746 -1
w 747 -1
w 748 -1
w 749 -1
w 750 -1
w 751 -1
w 752 -1
w 753 -1
w 754 -1
w 755 -1
w 756 -1
w 757 -1
w 758 -1
w 759 -1
w 760 -1
w 761 -1
w 762 -1
w 763 -1
w 764 -1
w 765 -1
w 766 -1
w 767 -1
w 768 -1
w 769 -1
w 770 -1
w 771 -1
w 772 -1
w 773 -1
w 774 -1
w 775 -1
w 776 -1
w 777 -1
w 778 -1
w 779 -1
w 780 -1
w 781 -1
w 782 -1
w 783 -1
w 784 -1
w 785 -1
w 786 -1
w 787 -1
w 788 -1
w 789 -1
w 790 -1
w 791 -1
w 792 -1
w 793 -1
w 794 -1
w 795 -1
w 796 -1
w 797 -1
w 798 -1
w 799 -1
w 800 -1
w 801 -1
w 802 -1
w 803 -1
w 804 -1
w 82 -1
